\ Model prob_27
\ LP format - for model browsing. Use MPS format to capture full model detail.
Minimize
  3 Chicken + 6 Tofu + Rice + 10 Avocado
Subject To
 R0: 2 Chicken + 18 Tofu + 2 Rice + 18 Avocado >= 86
 R1: 4 Chicken + 17 Tofu + 28 Rice + 27 Avocado >= 120
 R2: 218 Chicken + 290 Tofu + 298 Rice + 158 Avocado >= 2435
Bounds
Generals
 Chicken Tofu Rice Avocado
End
